\ENCODING=ISO-8859-1
\Problem name: ilog.cplex

Maximize
 obj: x1 + x2
Subject To
 c1:   <= 1
 c2:   <= 1
 c3:   <= 1
 c4:   <= 1
 c5:   x2 <= 1
 c6:   x2 <= 1
 c7:   <= 1
 c8:   <= 1
 c9:   x1 <= 1
 c10:  <= 1
 c11:  <= 1
 c12:  <= 1
 c13:  <= 1
 c14:  x1 <= 1
 c15:  <= 1
 c16:  <= 1
 c17:  <= 1
 c18:  x2 <= 1
 c19:  <= 1
 c20:  x2 <= 1
 c21:  <= 1
 c22:  <= 1
 c23:  <= 1
 c24:  x1 <= 1
 c25:  <= 1
 c26:  <= 1
 c27:  <= 1
 c28:  <= 1
 c29:  <= 1
 c30:  <= 1
 c31:  <= 1
 c32:  x1 <= 1
 c33:  <= 1
 c34:  x1 <= 1
 c35:  <= 1
 c36:  <= 1
 c37:  <= 1
 c38:  <= 1
 c39:  <= 1
 c40:  <= 1
 c41:  <= 1
 c42:  <= 1
 c43:  <= 1
 c44:  <= 1
 c45:  x2 <= 1
 c46:  <= 1
 c47:  x2 <= 1
 c48:  x2 <= 1
 c49:  <= 1
 c50:  x2 <= 1
 c51:  x1 <= 1
 c52:  <= 1
 c53:  x1 <= 1
 c54:  <= 1
 c55:  <= 1
 c56:  <= 1
 c57:  <= 1
 c58:  <= 1
 c59:  <= 1
 c60:  x1 <= 1
 c61:  x2 <= 1
 c62:  x2 <= 1
 c63:  x2 <= 1
 c64:  <= 1
 c65:  <= 1
 c66:  <= 1
 c67:  <= 1
 c68:  x1 <= 1
 c69:  <= 1
 c70:  x1 <= 1
 c71:  <= 1
 c72:  <= 1
 c73:  <= 1
 c74:  <= 1
 c75:  <= 1
 c76:  <= 1
 c77:  <= 1
 c78:  <= 1
 c79:  <= 1
 c80:  <= 1
 c81:  x1 <= 1
 c82:  <= 1
 c83:  <= 1
 c84:  <= 1
 c85:  <= 1
 c86:  <= 1
 c87:  <= 1
 c88:  x1 <= 1
 c89:  <= 1
 c90:  <= 1
 c91:  <= 1
 c92:  <= 1
 c93:  <= 1
 c94:  x1 <= 1
 c95:  x1 <= 1
 c96:  <= 1
 c97:  <= 1
 c98:  x1 <= 1
 c99:  x1 <= 1
 c100: <= 0
 c101: <= 0
 c102: <= 0
 c103: <= 0
 c104: <= 0
 c105: <= 0
 c106: <= 0
 c107: <= 0
 c108: <= 0
 c109: <= 0
 c110: <= 0
 c111: <= 0
 c112: <= 0
 c113: <= 0
 c114: <= 0
End
